
******************************************************************************
This program contains Ipopt, a library for large-scale nonlinear optimization.
 Ipopt is released as open source code under the Eclipse Public License (EPL).
         For more information visit http://projects.coin-or.org/Ipopt
******************************************************************************

This is Ipopt version 3.12.6, running with linear solver ma57.

Number of nonzeros in equality constraint Jacobian...:        0
Number of nonzeros in inequality constraint Jacobian.:        0
Number of nonzeros in Lagrangian Hessian.............:    39984

Total number of variables............................:    10000
                     variables with only lower bounds:        0
                variables with lower and upper bounds:    10000
                     variables with only upper bounds:        0
Total number of equality constraints.................:        0
Total number of inequality constraints...............:        0
        inequality constraints with only lower bounds:        0
   inequality constraints with lower and upper bounds:        0
        inequality constraints with only upper bounds:        0

iter    objective    inf_pr   inf_du lg(mu)  ||d||  lg(rg) alpha_du alpha_pr  ls
   0 -4.9221562e+07 0.00e+00 1.00e+02  -1.0 0.00e+00    -  0.00e+00 0.00e+00   0
   1 -5.0318638e+07 0.00e+00 1.02e+02  -1.0 1.02e-02   4.0 1.00e+00 1.00e+00f  1
   2 -5.3816745e+07 0.00e+00 1.08e+02  -1.0 3.25e-02   3.5 1.00e+00 1.00e+00f  1
   3 -6.6531004e+07 0.00e+00 1.30e+02  -1.0 1.17e-01   3.0 1.00e+00 1.00e+00f  1
   4 -1.4299001e+08 0.00e+00 2.62e+02  -1.0 7.08e-01   2.6 8.33e-01 1.00e+00f  1
   5 -1.8573513e+08 0.00e+00 3.23e+02  -1.0 3.27e-01   3.0 1.00e+00 1.00e+00f  1
   6 -4.9285656e+08 0.00e+00 7.38e+02  -1.0 2.24e+00   2.5 6.16e-01 1.00e+00f  1
   7 -6.7953054e+08 0.00e+00 9.35e+02  -1.0 1.06e+00   2.9 1.00e+00 1.00e+00f  1
   8 -1.5187557e+09 0.00e+00 1.85e+03  -1.0 8.63e+00   2.5 5.02e-01 5.73e-01f  1
   9 -1.5290930e+09 0.00e+00 1.85e+03  -1.0 3.09e+00   2.9 1.00e+00 1.60e-02f  1
iter    objective    inf_pr   inf_du lg(mu)  ||d||  lg(rg) alpha_du alpha_pr  ls
  10 -1.5379244e+09 0.00e+00 1.64e+03  -1.0 1.91e+01   2.4 4.83e-01 2.50e-03f  1
  11 -1.7454455e+09 0.00e+00 1.79e+03  -1.0 3.17e+00   2.8 1.00e+00 2.67e-01f  1
  12 -1.7571667e+09 0.00e+00 1.66e+03  -1.0 2.55e+01   2.4 3.50e-01 2.18e-03f  1
  13 -1.8734093e+09 0.00e+00 1.63e+03  -1.0 3.48e+00   2.8 1.00e+00 1.15e-01f  1
  14 -2.0339009e+09 0.00e+00 1.61e+03  -1.0 3.48e+01   2.3 2.50e-01 2.00e-02f  1
  15 -2.1502542e+09 0.00e+00 1.55e+03  -1.0 3.91e+00   2.7 1.00e+00 8.83e-02f  1
  16 -2.3577614e+09 0.00e+00 1.55e+03  -1.0 5.09e+01   2.3 1.68e-01 1.63e-02f  1
  17 -2.4833457e+09 0.00e+00 1.48e+03  -1.0 4.34e+00   2.7 1.00e+00 7.46e-02f  1
  18 -2.7088103e+09 0.00e+00 1.48e+03  -1.0 9.20e+01   2.2 9.44e-02 1.02e-02f  1
  19 -2.8379147e+09 0.00e+00 1.41e+03  -1.0 4.86e+00   2.6 1.00e+00 6.08e-02f  1
iter    objective    inf_pr   inf_du lg(mu)  ||d||  lg(rg) alpha_du alpha_pr  ls
  20 -3.0063040e+09 0.00e+00 1.45e+03  -1.0 3.86e+02   2.2 2.15e-02 2.98e-03f  1
  21 -3.1102134e+09 0.00e+00 1.35e+03  -1.0 5.55e+00   2.6 1.00e+00 3.98e-02f  1
  22 -3.3318568e+09 0.00e+00 1.38e+03  -1.0 1.50e+00   3.0 1.00e+00 2.88e-01f  1
  23 -3.5963176e+09 0.00e+00 1.37e+03  -1.0 6.51e+00   2.5 1.00e+00 8.35e-02f  1
  24 -3.7793284e+09 0.00e+00 1.38e+03  -1.0 1.73e+00   3.0 1.00e+00 1.96e-01f  1
  25 -4.0347692e+09 0.00e+00 1.36e+03  -1.0 7.86e+00   2.5 1.00e+00 6.45e-02f  1
  26 -4.2085651e+09 0.00e+00 1.36e+03  -1.0 1.97e+00   2.9 1.00e+00 1.59e-01f  1
  27 -4.4593145e+09 0.00e+00 1.34e+03  -1.0 9.62e+00   2.4 9.17e-01 5.16e-02f  1
  28 -4.6382043e+09 0.00e+00 1.34e+03  -1.0 2.23e+00   2.9 1.00e+00 1.40e-01f  1
  29 -4.8970692e+09 0.00e+00 1.31e+03  -1.0 1.16e+01   2.4 7.39e-01 4.36e-02f  1
iter    objective    inf_pr   inf_du lg(mu)  ||d||  lg(rg) alpha_du alpha_pr  ls
  30 -5.0915877e+09 0.00e+00 1.30e+03  -1.0 2.48e+00   2.8 1.00e+00 1.32e-01f  1
  31 -5.3868629e+09 0.00e+00 1.28e+03  -1.0 1.45e+01   2.3 5.95e-01 4.00e-02f  1
  32 -5.5960162e+09 0.00e+00 1.26e+03  -1.0 2.79e+00   2.8 1.00e+00 1.21e-01f  1
  33 -5.9232534e+09 0.00e+00 1.23e+03  -1.0 1.82e+01   2.3 4.65e-01 3.56e-02f  1
  34 -6.1380996e+09 0.00e+00 1.22e+03  -1.0 3.12e+00   2.7 1.00e+00 1.08e-01f  1
  35 -6.4783969e+09 0.00e+00 1.21e+03  -1.0 2.42e+01   2.2 3.57e-01 2.95e-02f  1
  36 -6.6991083e+09 0.00e+00 1.18e+03  -1.0 3.48e+00   2.7 1.00e+00 9.60e-02f  1
  37 -7.0447048e+09 0.00e+00 1.17e+03  -1.0 3.33e+01   2.2 2.54e-01 2.35e-02f  1
  38 -7.2670405e+09 0.00e+00 1.13e+03  -1.0 3.90e+00   2.6 1.00e+00 8.47e-02f  1
  39 -7.6055639e+09 0.00e+00 1.13e+03  -1.0 5.00e+01   2.1 1.67e-01 1.75e-02f  1
iter    objective    inf_pr   inf_du lg(mu)  ||d||  lg(rg) alpha_du alpha_pr  ls
  40 -7.8489329e+09 0.00e+00 1.09e+03  -1.0 4.37e+00   2.6 1.00e+00 8.11e-02f  1
  41 -8.0999311e+09 0.00e+00 1.10e+03  -1.0 1.06e+02   2.1 7.95e-02 9.65e-03f  1
  42 -8.3082562e+09 0.00e+00 1.04e+03  -1.0 4.99e+00   2.5 1.00e+00 6.22e-02f  1
  43 -8.3678347e+09 0.00e+00 1.08e+03  -1.0 1.40e+03   2.0 5.85e-03 9.20e-04f  1
  44 -8.4623495e+09 0.00e+00 9.95e+02  -1.0 5.62e+00   2.4 1.00e+00 2.55e-02f  1
  45 -8.8229651e+09 0.00e+00 1.02e+03  -1.0 1.51e+00   2.9 1.00e+00 3.08e-01f  1
  46 -9.1792939e+09 0.00e+00 1.01e+03  -1.0 6.66e+00   2.4 1.00e+00 8.41e-02f  1
  47 -9.4704251e+09 0.00e+00 1.03e+03  -1.0 1.77e+00   2.8 1.00e+00 2.23e-01f  1
  48 -9.7888204e+09 0.00e+00 1.01e+03  -1.0 8.26e+00   2.3 1.00e+00 6.54e-02f  1
  49 -1.0034728e+10 0.00e+00 1.02e+03  -1.0 2.02e+00   2.8 1.00e+00 1.70e-01f  1
iter    objective    inf_pr   inf_du lg(mu)  ||d||  lg(rg) alpha_du alpha_pr  ls
  50 -1.0303532e+10 0.00e+00 9.85e+02  -1.0 9.91e+00   2.3 8.79e-01 4.83e-02f  1
  51 -1.0545404e+10 0.00e+00 9.92e+02  -1.0 2.25e+00   2.7 1.00e+00 1.52e-01f  1
  52 -1.0825005e+10 0.00e+00 9.71e+02  -1.0 1.20e+01   2.2 7.15e-01 4.38e-02f  1
  53 -1.1082274e+10 0.00e+00 9.65e+02  -1.0 2.53e+00   2.7 1.00e+00 1.47e-01f  1
  54 -1.1378982e+10 0.00e+00 9.55e+02  -1.0 1.50e+01   2.2 5.62e-01 4.14e-02f  1
  55 -1.1590303e+10 0.00e+00 9.39e+02  -1.0 2.87e+00   2.6 1.00e+00 1.12e-01f  1
  56 -1.1888138e+10 0.00e+00 9.33e+02  -1.0 1.98e+01   2.1 4.24e-01 3.80e-02f  1
  57 -1.2095735e+10 0.00e+00 9.14e+02  -1.0 3.16e+00   2.6 1.00e+00 1.03e-01f  1
  58 -1.2390638e+10 0.00e+00 8.99e+02  -1.0 2.47e+01   2.1 3.50e-01 3.35e-02f  1
  59 -1.2587969e+10 0.00e+00 8.78e+02  -1.0 3.49e+00   2.5 1.00e+00 9.06e-02f  1
iter    objective    inf_pr   inf_du lg(mu)  ||d||  lg(rg) alpha_du alpha_pr  ls
  60 -1.2863091e+10 0.00e+00 8.42e+02  -1.0 3.09e+01   2.0 2.79e-01 2.72e-02f  1
  61 -1.3070335e+10 0.00e+00 8.28e+02  -1.0 3.81e+00   2.5 1.00e+00 8.79e-02f  1
  62 -1.3319690e+10 0.00e+00 8.15e+02  -1.0 4.15e+01   2.0 1.94e-01 2.10e-02f  1
  63 -1.3532895e+10 0.00e+00 7.98e+02  -1.0 4.11e+00   2.4 1.00e+00 8.27e-02f  1
  64 -1.3859077e+10 0.00e+00 8.13e+02  -1.0 7.43e+01   1.9 9.41e-02 2.17e-02f  1
  65 -1.3953571e+10 0.00e+00 7.69e+02  -1.0 5.00e+00   2.4 1.00e+00 3.31e-02f  1
  66 -1.4008778e+10 0.00e+00 8.01e+02  -1.0 6.69e+02   1.9 1.17e-02 2.06e-03f  1
  67 -1.4069342e+10 0.00e+00 7.46e+02  -1.0 5.67e+00   2.3 1.00e+00 2.00e-02f  1
  68 -1.4387431e+10 0.00e+00 7.56e+02  -1.0 1.53e+00   2.7 1.00e+00 3.11e-01f  1
  69 -1.4718292e+10 0.00e+00 7.54e+02  -1.0 6.69e+00   2.3 1.00e+00 9.93e-02f  1
iter    objective    inf_pr   inf_du lg(mu)  ||d||  lg(rg) alpha_du alpha_pr  ls
  70 -1.4889112e+10 0.00e+00 7.48e+02  -1.0 1.78e+00   2.7 1.00e+00 1.58e-01f  1
  71 -1.5158968e+10 0.00e+00 7.49e+02  -1.0 8.07e+00   2.2 1.00e+00 7.53e-02f  1
  72 -1.5336674e+10 0.00e+00 7.43e+02  -1.0 2.02e+00   2.6 1.00e+00 1.59e-01f  1
  73 -1.5532882e+10 0.00e+00 7.33e+02  -1.0 9.77e+00   2.2 8.66e-01 5.18e-02f  1
  74 -1.5703353e+10 0.00e+00 7.26e+02  -1.0 2.26e+00   2.6 1.00e+00 1.49e-01f  1
  75 -1.5897124e+10 0.00e+00 7.09e+02  -1.0 1.20e+01   2.1 7.02e-01 4.74e-02f  1
  76 -1.6058665e+10 0.00e+00 7.05e+02  -1.0 2.49e+00   2.5 1.00e+00 1.34e-01f  1
  77 -1.6262494e+10 0.00e+00 6.87e+02  -1.0 1.27e+01   2.1 5.92e-01 4.81e-02f  1
  78 -1.6422762e+10 0.00e+00 6.78e+02  -1.0 2.70e+00   2.5 1.00e+00 1.34e-01f  1
  79 -1.6618201e+10 0.00e+00 6.67e+02  -1.0 1.43e+01   2.0 4.71e-01 4.65e-02f  1
iter    objective    inf_pr   inf_du lg(mu)  ||d||  lg(rg) alpha_du alpha_pr  ls
  80 -1.6738801e+10 0.00e+00 6.46e+02  -1.0 2.96e+00   2.4 1.00e+00 1.03e-01f  1
  81 -1.6909762e+10 0.00e+00 6.30e+02  -1.0 1.77e+01   2.0 4.04e-01 4.02e-02f  1
  82 -1.7024220e+10 0.00e+00 6.20e+02  -1.0 3.29e+00   2.4 1.00e+00 9.82e-02f  1
  83 -1.7170896e+10 0.00e+00 6.12e+02  -1.0 2.24e+01   1.9 3.12e-01 3.39e-02f  1
  84 -1.7275908e+10 0.00e+00 5.96e+02  -1.0 3.56e+00   2.3 1.00e+00 9.17e-02f  1
  85 -1.7450172e+10 0.00e+00 5.95e+02  -1.0 2.35e+01   1.9 2.41e-01 4.23e-02f  1
  86 -1.7520687e+10 0.00e+00 5.55e+02  -1.0 3.66e+00   2.3 1.00e+00 6.56e-02f  1
  87 -1.7686394e+10 0.00e+00 5.79e+02  -1.0 4.33e+01   1.8 1.30e-01 3.65e-02f  1
  88 -1.7714295e+10 0.00e+00 5.45e+02  -1.0 4.75e+00   2.2 1.00e+00 2.52e-02f  1
  89 -1.7787826e+10 0.00e+00 5.54e+02  -1.0 1.12e+02   1.7 5.62e-02 1.09e-02f  1
iter    objective    inf_pr   inf_du lg(mu)  ||d||  lg(rg) alpha_du alpha_pr  ls
  90 -1.7805934e+10 0.00e+00 5.06e+02  -1.0 5.26e+00   2.2 1.00e+00 1.52e-02f  1
  91 -1.7927853e+10 0.00e+00 5.16e+02  -1.0 1.43e+00   2.6 1.00e+00 2.75e-01f  1
  92 -1.8039214e+10 0.00e+00 5.10e+02  -1.0 6.01e+00   2.1 1.00e+00 8.81e-02f  1
  93 -1.8125908e+10 0.00e+00 5.11e+02  -1.0 1.63e+00   2.6 1.00e+00 1.96e-01f  1
  94 -1.8229239e+10 0.00e+00 5.06e+02  -1.0 7.22e+00   2.1 1.00e+00 8.02e-02f  1
  95 -1.8296589e+10 0.00e+00 5.05e+02  -1.0 1.87e+00   2.5 1.00e+00 1.57e-01f  1
  96 -1.8371158e+10 0.00e+00 4.93e+02  -1.0 8.72e+00   2.0 9.83e-01 5.87e-02f  1
  97 -1.8440330e+10 0.00e+00 4.91e+02  -1.0 2.06e+00   2.4 1.00e+00 1.69e-01f  1
  98 -1.8509144e+10 0.00e+00 4.79e+02  -1.0 1.02e+01   2.0 7.90e-01 5.50e-02f  1
  99 -1.8568555e+10 0.00e+00 4.69e+02  -1.0 2.16e+00   2.4 1.00e+00 1.49e-01f  1
iter    objective    inf_pr   inf_du lg(mu)  ||d||  lg(rg) alpha_du alpha_pr  ls
 100 -1.8650279e+10 0.00e+00 4.65e+02  -1.0 1.06e+01   1.9 6.68e-01 6.35e-02f  1
 101 -1.8702290e+10 0.00e+00 4.61e+02  -1.0 2.44e+00   2.3 1.00e+00 1.29e-01f  1
 102 -1.8770145e+10 0.00e+00 4.58e+02  -1.0 1.43e+01   1.9 5.20e-01 5.31e-02f  1
 103 -1.8817190e+10 0.00e+00 4.55e+02  -1.0 2.83e+00   2.3 1.00e+00 1.20e-01f  1
 104 -1.8867327e+10 0.00e+00 4.55e+02  -1.0 2.10e+01   1.8 3.93e-01 4.24e-02f  1
 105 -1.8903975e+10 0.00e+00 4.42e+02  -1.0 3.33e+00   2.2 1.00e+00 1.00e-01f  1
 106 -1.8952991e+10 0.00e+00 3.90e+02  -1.0 1.26e+01   1.8 4.88e-01 4.55e-02f  1
 107 -1.9011858e+10 0.00e+00 3.66e+02  -1.0 2.63e+00   2.2 1.00e+00 1.70e-01f  1
 108 -1.9080812e+10 0.00e+00 3.65e+02  -1.0 1.06e+01   1.7 7.39e-01 6.59e-02f  1
 109 -1.9121323e+10 0.00e+00 3.61e+02  -1.0 2.84e+00   2.1 1.00e+00 1.21e-01f  1
iter    objective    inf_pr   inf_du lg(mu)  ||d||  lg(rg) alpha_du alpha_pr  ls
 110 -1.9203807e+10 0.00e+00 3.38e+02  -1.0 1.35e+01   1.7 5.67e-01 7.28e-02f  1
 111 -1.9220811e+10 0.00e+00 3.14e+02  -1.0 3.12e+00   2.1 1.00e+00 4.98e-02f  1
 112 -1.9279125e+10 0.00e+00 3.06e+02  -1.0 1.58e+01   1.6 5.08e-01 5.43e-02f  1
 113 -1.9314447e+10 0.00e+00 2.98e+02  -1.0 3.32e+00   2.0 1.00e+00 1.12e-01f  1
 114 -1.9356912e+10 0.00e+00 2.86e+02  -1.0 1.87e+01   1.6 4.10e-01 4.79e-02f  1
 115 -1.9387546e+10 0.00e+00 2.77e+02  -1.0 3.49e+00   2.0 1.00e+00 1.09e-01f  1
 116 -1.9421361e+10 0.00e+00 2.71e+02  -1.0 1.69e+01   1.5 5.09e-01 4.24e-02f  1
 117 -1.9467029e+10 0.00e+00 2.67e+02  -1.0 3.40e+00   1.9 1.00e+00 1.71e-01f  1
 118 -1.9522986e+10 0.00e+00 2.42e+02  -1.0 1.12e+01   1.5 7.38e-01 7.43e-02f  1
 119 -1.9552701e+10 0.00e+00 2.31e+02  -1.0 3.26e+00   1.9 1.00e+00 1.31e-01f  1
iter    objective    inf_pr   inf_du lg(mu)  ||d||  lg(rg) alpha_du alpha_pr  ls
 120 -1.9597872e+10 0.00e+00 2.21e+02  -1.0 1.12e+01   1.4 5.75e-01 7.16e-02f  1
 121 -1.9621081e+10 0.00e+00 2.12e+02  -1.0 3.39e+00   1.8 1.00e+00 1.19e-01f  1
 122 -1.9662089e+10 0.00e+00 2.02e+02  -1.0 1.25e+01   1.4 4.53e-01 7.38e-02f  1
 123 -1.9679082e+10 0.00e+00 1.91e+02  -1.0 3.46e+00   1.8 1.00e+00 1.05e-01f  1
 124 -1.9712407e+10 0.00e+00 1.84e+02  -1.0 1.75e+01   1.3 3.55e-01 7.31e-02f  1
 125 -1.9723867e+10 0.00e+00 1.68e+02  -1.0 3.87e+00   1.7 1.00e+00 8.66e-02f  1
 126 -1.9742462e+10 0.00e+00 1.61e+02  -1.0 2.17e+01   1.3 2.69e-01 3.95e-02f  1
 127 -1.9753475e+10 0.00e+00 1.51e+02  -1.0 3.99e+00   1.7 1.00e+00 8.91e-02f  1
 128 -1.9771798e+10 0.00e+00 1.47e+02  -1.0 2.85e+01   1.2 1.96e-01 4.04e-02f  1
 129 -1.9779106e+10 0.00e+00 1.38e+02  -1.0 4.24e+00   1.6 1.00e+00 6.63e-02f  1
iter    objective    inf_pr   inf_du lg(mu)  ||d||  lg(rg) alpha_du alpha_pr  ls
 130 -1.9793547e+10 0.00e+00 1.41e+02  -1.0 4.80e+01   1.2 1.13e-01 3.05e-02f  1
 131 -1.9798672e+10 0.00e+00 1.29e+02  -1.0 4.85e+00   1.6 1.00e+00 4.76e-02f  1
 132 -1.9804672e+10 0.00e+00 1.32e+02  -1.0 2.13e+02   1.1 2.44e-02 1.04e-02f  1
 133 -1.9806613e+10 0.00e+00 1.20e+02  -1.0 4.91e+00   1.5 1.00e+00 1.97e-02f  1
 134 -1.9825710e+10 0.00e+00 1.17e+02  -1.0 1.63e+01   1.0 6.03e-01 9.19e-02f  1
 135 -1.9831160e+10 0.00e+00 1.21e+02  -1.0 2.93e+02   0.6 3.43e-02 6.54e-03f  1
 136 -1.9833904e+10 0.00e+00 1.02e+02  -1.0 1.33e+01   1.0 1.00e+00 2.85e-02f  1
 137 -1.9835395e+10 0.00e+00 1.35e+02  -1.0 3.87e+01   0.5 2.20e-01 3.70e-02f  1
 138 -1.9840633e+10 0.00e+00 1.59e+01  -1.0 2.19e+00    -  1.00e+00 2.26e-01f  1
 139 -1.9854621e+10 0.00e+00 9.60e-02  -1.0 3.98e-01    -  1.00e+00 9.81e-01f  1
iter    objective    inf_pr   inf_du lg(mu)  ||d||  lg(rg) alpha_du alpha_pr  ls
 140 -1.9855334e+10 0.00e+00 9.09e-13  -1.7 5.72e-01    -  1.00e+00 1.00e+00f  1
 141 -1.9855438e+10 0.00e+00 1.11e-04  -3.8 2.73e-01    -  9.82e-01 1.00e+00f  1
 142 -1.9855439e+10 0.00e+00 9.09e-13  -5.7 1.34e-02    -  1.00e+00 1.00e+00f  1
 143 -1.9855439e+10 0.00e+00 9.09e-13  -8.6 4.26e-05    -  1.00e+00 1.00e+00f  1

Number of Iterations....: 143

                                   (scaled)                 (unscaled)
Objective...............:  -3.7819883531098612e+07   -1.9855438853826771e+10
Dual infeasibility......:   9.0949470177292824e-13    4.7748471843078732e-10
Constraint violation....:   0.0000000000000000e+00    0.0000000000000000e+00
Complementarity.........:   2.5305032203484757e-09    1.3285141906829496e-06
Overall NLP error.......:   6.6691658035595533e-10    1.3285141906829496e-06


Number of objective function evaluations             = 144
Number of objective gradient evaluations             = 144
Number of equality constraint evaluations            = 0
Number of inequality constraint evaluations          = 0
Number of equality constraint Jacobian evaluations   = 0
Number of inequality constraint Jacobian evaluations = 0
Number of Lagrangian Hessian evaluations             = 143
Total CPU secs in IPOPT (w/o function evaluations)   =      9.360
Total CPU secs in NLP function evaluations           =      0.437

EXIT: Optimal Solution Found.
Note: The following floating-point exceptions are signalling: IEEE_UNDERFLOW_FLAG IEEE_DENORMAL

 ** SUBROUTINE CUTEST_csetup: Warning. The problem has no general constraints. 
 ** Other tools may be preferable ** 

************************ CUTEst statistics ************************


 Package used            :  IPOPT
 Problem                 :  NCVXBQP1  
 # variables             =           10000
 # constraints           =               0
 # objective functions   =        0.2890000E+03
 # objective gradients   =        0.1450000E+03
 # objective Hessians    =        0.1440000E+03
 # Hessian-vector prdct  =        0.0000000E+00
 # constraints functions =        0.0000000E+00
 # constraints gradients =        0.0000000E+00
 # constraints Hessians  =        0.0000000E+00
 Exit code               =               0
 Final f                 =  -0.1985544E+11
 Set up time             =            0.17 seconds
 Solve time              =           27.18 seconds


******************************************************************

System Time =       6.7960000038 s.
